67
73
291
328
543
873
590
1015
238
1149
1397
2560
661
2811
973
4446
3943
2209
4659
6445
1376
7688
10049
7783
9502
10222
8930
8228
1158
13621
16545
14684
18943
1119
17113
12700
13825
19274
15409
2250
25716
10548
5628
32440
30203
20019
35668
39869
30019
40586
42047
36104
45208
47651
35460
40655
55394
48520
21617
59060
63478
55852
64463
52484
69872
31068
60149
65364
80411
42779
70943
38643
21518
24331
75266
77412
65838
33231
100746
89751
62565
88515
78604
85346
107183
11678
116597
128075
115172
100432
21941
132491
55098
95582
122147
126905
144499
108797
42108
140583
